32      4       
17      19      14      20      
0       0       0       0       0       2       2       3       
8       0       19      14      0       3       4       5       6       
3       4       0       0       9       3       5       6       7       
9       7       1       0       0       3       7       9       13      
6       0       0       6       8       7       9       11      12      13      15      19      23      
3       0       7       0       13      5       8       14      19      20      24      
1       0       13      1       0       11      10      11      12      14      15      18      19      21      22      23      24      
4       0       19      6       0       10      10      11      12      13      15      16      17      21      22      23      
7       0       6       0       1       8       10      14      16      17      18      20      21      24      
6       17      0       7       0       5       25      26      27      28      31      
5       12      0       0       8       5       25      26      27      28      31      
10      2       0       3       0       5       25      26      27      28      31      
9       8       0       14      0       5       25      26      27      28      31      
1       10      0       4       0       4       26      27      28      31      
10      0       18      1       0       4       25      26      27      28      
3       15      12      0       0       4       25      26      28      31      
4       0       9       7       0       4       25      26      27      28      
3       2       0       0       14      4       25      26      28      31      
6       3       4       0       0       4       26      27      30      31      
8       0       0       10      9       4       26      27      30      31      
8       11      0       0       13      3       25      26      27      
6       0       11      0       20      3       25      26      27      
2       0       7       0       9       2       26      28      
9       0       1       13      0       2       25      27      
4       1       0       0       1       2       29      30      
5       10      0       0       10      1       29      
4       0       0       6       14      1       29      
1       9       0       12      0       1       30      
10      0       0       1       20      1       32      
1       0       5       0       1       1       32      
10      17      11      0       0       1       32      
0       0       0       0       0       0       
